(set-logic QF_S)
(declare-fun _var_0xINPUT_90241_() String)
(declare-fun __woorpje_diseq_pref0_() String)
(declare-fun __woorpje_diseq_suf_l0_() String)
(declare-fun __woorpje_diseq_suf_r0_() String)
(declare-fun __woorpje_diseq_pref1_() String)
(declare-fun __woorpje_diseq_suf_l1_() String)
(declare-fun __woorpje_diseq_suf_r1_() String)
(declare-fun __woorpje_diseq_pref2_() String)
(declare-fun __woorpje_diseq_suf_l2_() String)
(declare-fun __woorpje_diseq_suf_r2_() String)
(declare-fun __woorpje_diseq_pref3_() String)
(declare-fun __woorpje_diseq_suf_l3_() String)
(declare-fun __woorpje_diseq_suf_r3_() String)
(declare-fun __woorpje_diseq_pref4_() String)
(declare-fun __woorpje_diseq_suf_l4_() String)
(declare-fun __woorpje_diseq_suf_r4_() String)
(assert (=(str.++ _var_0xINPUT_90241_  "")(str.++ __woorpje_diseq_pref2_  "2" __woorpje_diseq_suf_l2_  "")) )
(assert (=(str.++  "j2DpYJpVEE" "")(str.++ __woorpje_diseq_pref2_  "V" __woorpje_diseq_suf_r2_  "")) )
(assert (=(str.++ _var_0xINPUT_90241_  "")(str.++ __woorpje_diseq_pref4_  "j" __woorpje_diseq_suf_l4_  "")) )
(assert (=(str.++  "ywUN4ZIDAC" "")(str.++ __woorpje_diseq_pref4_  "y" __woorpje_diseq_suf_r4_  "")) )
(assert  (<= (* (str.len _var_0xINPUT_90241_)(- 1)) (- 1)) )
(assert  (<= (* (str.len _var_0xINPUT_90241_)(- 1)) (- 1)) )
(assert  (<= (* (str.len _var_0xINPUT_90241_)(- 1)) (- 11)) )
(assert  (<= (* (str.len _var_0xINPUT_90241_)(- 1)) (- 1)) )
(check-sat)
